
Gurobi 11.0.3 (linux64) logging started Sun Jun  1 03:55:30 2025

Set parameter LogFile to value "/home/yihong/Coding/SFLA+ED/PD_results_bigM100000_thread4/case24_ieee_rts_theta0.001_epsilon0.06_gurobi_seed40000_num_gen19_N_WDR80_load_scaling_factor2.0_ExactLHS_T1.txt"
Set parameter TimeLimit to value 3600
Gurobi Optimizer version 11.0.3 build v11.0.3rc0 (linux64 - "Ubuntu 20.04.6 LTS")

CPU model: AMD EPYC 7532 32-Core Processor, instruction set [SSE2|AVX|AVX2]
Thread count: 64 physical cores, 128 logical processors, using up to 4 threads

Optimize a model with 20641 rows, 199 columns and 712516 nonzeros
Model fingerprint: 0x455e2bbe
Model has 19 quadratic objective terms
Variable types: 119 continuous, 80 integer (80 binary)
Coefficient statistics:
  Matrix range     [1e-05, 1e+05]
  Objective range  [2e+01, 6e+01]
  QObjective range [6e-03, 2e-02]
  Bounds range     [1e+00, 1e+00]
  RHS range        [1e-04, 1e+05]
Presolve removed 8429 rows and 76 columns
Presolve time: 0.38s
Presolved: 12212 rows, 123 columns, 218523 nonzeros
Presolved model has 19 quadratic objective terms
Variable types: 123 continuous, 0 integer (0 binary)
Root relaxation presolve removed 1917 rows and 0 columns
Root relaxation presolve time: 0.48s
Root relaxation presolved: 10295 rows, 1718 columns, 202520 nonzeros
Root relaxation presolved model has 19 quadratic objective terms
Root barrier log...

Ordering time: 0.16s

Barrier statistics:
 Dense cols : 31
 AA' NZ     : 1.320e+06
 Factor NZ  : 1.676e+06 (roughly 20 MB of memory)
 Factor Ops : 4.214e+08 (less than 1 second per iteration)
 Threads    : 3

                  Objective                Residual
Iter       Primal          Dual         Primal    Dual     Compl     Time
   0   2.41997053e+11 -2.40828862e+11  3.19e+06 1.92e+05  1.99e+08     1s
   1   1.11726095e+11 -1.11041051e+11  2.16e+06 1.30e+05  1.36e+08     1s
   2   3.72799559e+10 -4.00162526e+10  1.24e+06 7.44e+04  7.94e+07     1s
   3   5.10328648e+07 -5.97952089e+09  3.88e+04 2.33e+03  3.84e+06     1s
   4   5.12812296e+05 -8.25220132e+08  1.09e+03 6.51e+01  1.63e+05     1s
   5   2.73062052e+05 -5.32783701e+08  5.19e+02 3.11e+01  8.47e+04     1s
   6   1.39863772e+05 -3.43162875e+08  1.83e+02 1.10e+01  4.39e+04     1s
   7   9.59770195e+04 -2.06727483e+08  7.08e+01 4.17e+00  2.24e+04     1s
   8   9.53675653e+04 -2.02831817e+08  6.92e+01 4.08e+00  2.19e+04     1s
   9   9.09441915e+04 -1.74142096e+08  5.77e+01 3.40e+00  1.84e+04     1s
  10   7.18134828e+04 -1.02929561e+08  7.65e+00 5.15e-01  9.11e+03     1s
  11   6.96593568e+04 -3.49744404e+07  2.21e+00 1.41e-01  2.99e+03     1s
  12   6.90137716e+04 -1.39819463e+07  6.40e-01 4.30e-02  1.18e+03     1s
  13   6.87592778e+04 -1.17638120e+06  3.30e-02 2.41e-03  1.04e+02     1s
  14   6.87247942e+04 -8.58290447e+05  2.14e-02 1.56e-03  7.74e+01     1s
  15   6.86444300e+04 -3.10698812e+05  6.37e-03 4.58e-04  3.19e+01     1s
  16   6.86391178e+04 -2.91414959e+05  6.09e-03 4.39e-04  3.05e+01     1s
  17   6.86362922e+04 -1.74211888e+05  6.01e-03 4.33e-04  3.03e+01     1s
  18   6.85869998e+04  1.53738913e+08  4.85e-03 3.49e-04  2.24e+03     1s
  19   6.85392182e+04  1.61541927e+08  4.37e-03 6.68e-06  1.23e+03     1s
  20   6.85457475e+04  1.63872229e+08  4.32e-03 4.81e-05  1.06e+03     1s
  21   6.87027233e+04  1.64664849e+08  4.30e-03 1.45e-04  1.05e+03     1s
  22   6.86986717e+04  1.66444825e+08  4.29e-03 1.56e-04  1.04e+03     1s
  23   2.41997053e+11 -2.40828862e+11  3.19e+06 1.92e+05  1.99e+08     1s
  24   2.48863088e+10 -2.37426408e+10  1.02e+06 6.11e+04  2.03e+07     1s
  25   4.54436251e+08 -6.03577348e+07  1.31e+05 7.85e+03  3.47e+05     1s
  26   2.37798466e+07  6.05917310e+07  2.46e+04 1.48e+03  1.29e+04     1s
  27   6.32938550e+06  2.87574261e+07  1.01e+04 6.07e+02  2.24e+03     1s
  28   2.53138187e+06  1.48759846e+07  4.97e+03 2.99e+02  5.62e+02     1s
  29   4.14511723e+05  2.90357251e+06  9.14e+02 5.49e+01  2.48e+01     1s
  30   2.08136705e+05  1.32256626e+06  4.01e+02 2.41e+01  7.58e+00     1s
  31   1.88950928e+05  1.16957711e+06  3.52e+02 2.12e+01  6.49e+00     1s
  32   1.76360793e+05  1.06544970e+06  3.19e+02 1.92e+01  5.67e+00     1s
  33   1.54978682e+05  8.91952079e+05  2.64e+02 1.58e+01  4.56e+00     2s
  34   1.16724220e+05  5.59266612e+05  1.57e+02 9.45e+00  2.30e+00     2s
  35   8.10854441e+04  2.26364982e+05  5.11e+01 3.07e+00  5.80e-01     2s
  36   6.85656895e+04  1.01448592e+05  1.15e+01 6.91e-01  1.11e-01     2s
  37   6.82365846e+04  9.80746427e+04  1.04e+01 6.27e-01  1.02e-01     2s
  38   6.67086577e+04  8.23689888e+04  5.49e+00 3.30e-01  5.71e-02     2s
  39   6.65849679e+04  8.10555203e+04  5.08e+00 3.05e-01  5.40e-02     2s
  40   6.61851451e+04  7.67728395e+04  3.72e+00 2.23e-01  4.27e-02     2s
  41   6.56942951e+04  7.13810549e+04  2.01e+00 1.21e-01  2.76e-02     2s
  42   6.54346560e+04  6.85510384e+04  1.12e+00 6.73e-02  1.91e-02     2s
  43   6.53771443e+04  6.79661579e+04  9.30e-01 5.59e-02  1.59e-02     2s
  44   6.53764139e+04  6.79590199e+04  9.27e-01 5.57e-02  1.59e-02     2s
  45   6.53726859e+04  6.79035669e+04  9.05e-01 5.44e-02  1.58e-02     2s
  46   6.52329025e+04  6.63520422e+04  4.07e-01 2.39e-02  8.56e-03     2s
  47   6.51821031e+04  6.57950340e+04  2.25e-01 1.32e-02  5.34e-03     2s
  48   6.51543025e+04  6.54629903e+04  1.19e-01 6.99e-03  4.22e-03     2s
  49   6.51455800e+04  6.53768961e+04  9.00e-02 5.27e-03  3.34e-03     2s
  50   6.51416168e+04  6.53318785e+04  7.46e-02 4.37e-03  2.95e-03     2s
  51   6.51385864e+04  6.53045129e+04  6.48e-02 3.80e-03  2.56e-03     2s
  52   6.51369338e+04  6.52892015e+04  5.92e-02 3.47e-03  2.33e-03     2s
  53   6.51365649e+04  6.52862080e+04  5.79e-02 3.39e-03  2.28e-03     2s
  54   6.51360081e+04  6.52816065e+04  5.52e-02 3.24e-03  2.18e-03     2s
  55   6.51350199e+04  6.52606723e+04  4.84e-02 2.84e-03  2.13e-03     2s
  56   6.51331712e+04  6.52336037e+04  3.87e-02 2.27e-03  1.73e-03     2s
  57   6.51322052e+04  6.52125922e+04  3.13e-02 1.83e-03  1.51e-03     2s
  58   6.51317872e+04  6.52065202e+04  2.90e-02 1.70e-03  1.40e-03     2s
  59   6.51316313e+04  6.52043967e+04  2.81e-02 1.65e-03  1.36e-03     2s
  60   6.51314767e+04  6.52018321e+04  2.70e-02 1.59e-03  1.31e-03     2s
  61   6.51304605e+04  6.51814105e+04  1.94e-02 1.14e-03  9.41e-04     2s
  62   6.51290029e+04  6.51451529e+04  6.50e-03 3.79e-04  3.88e-04     2s
  63   6.51289927e+04  6.51451062e+04  6.44e-03 3.76e-04  3.85e-04     2s
  64   6.51289861e+04  6.51452377e+04  6.40e-03 3.74e-04  3.83e-04     2s
  65   6.51289606e+04  6.51444149e+04  6.08e-03 3.55e-04  3.64e-04     2s
  66   6.51289509e+04  6.51449064e+04  6.06e-03 3.55e-04  3.63e-04     2s
  67   6.51289290e+04  6.51485388e+04  5.98e-03 3.53e-04  3.58e-04     2s
  68   6.51289281e+04  6.51512318e+04  5.98e-03 3.55e-04  3.59e-04     2s
  69   6.51289433e+04  6.52016798e+04  5.98e-03 4.10e-04  3.84e-04     2s
  70   6.51293229e+04  6.61283066e+04  6.44e-03 1.74e-03  7.14e-03     2s
  71   6.51519268e+04  7.68506425e+04  6.51e-03 1.42e-02  1.03e-01     2s
  72   6.52441480e+04  7.90878697e+04  6.86e-03 1.22e-02  2.33e-01     2s
  73   6.56745529e+04  8.49192379e+04  8.00e-03 1.31e-02  9.16e-01     2s
  74   6.64091252e+04  8.95861049e+04  9.02e-03 1.32e-02  2.01e+00     2s
  75   6.74701891e+04  9.59185371e+04  1.05e-02 1.02e-02  5.00e+00     2s
  76   6.85106725e+04  9.85140377e+04  1.04e-02 3.09e-03  1.31e+01     2s
  77   6.84416162e+04  9.25844548e+04  6.10e-03 1.76e-02  4.92e+01     2s
  78   6.84869974e+04  7.85691566e+04  4.12e-03 5.38e-03  8.26e+01     3s
  79*  6.84914037e+04  1.49325915e+06  6.15e-05 1.76e-05  1.73e-01     3s
  80*  6.85028824e+04  1.55468630e+06  1.41e-05 2.96e-06  4.41e-02     3s
  81*  6.85461845e+04  1.71177817e+06  3.17e-06 6.83e-07  1.47e-02     3s
  82*  6.85468516e+04  1.03646868e+07  2.81e-07 3.67e-07  1.31e-03     3s
  83*  6.86300746e+04  3.76315008e+07  6.13e-08 1.18e-06  3.29e-04     3s
  84*  6.86389838e+04  3.80507408e+08  1.30e-08 2.43e-07  3.24e-05     3s
  85*  6.88546451e+04  9.71267987e+09  1.49e-08 1.18e-06  1.23e-06     3s
  86*  6.88546452e+04  9.71256283e+12  1.49e-11 2.60e-07  1.23e-09     3s

Barrier performed 86 iterations in 2.69 seconds (3.45 work units)
Infeasible model


Root relaxation: infeasible or unbounded, 0 iterations, 2.25 seconds (2.78 work units)

Explored 1 nodes (0 simplex iterations) in 3.11 seconds (3.47 work units)
Thread count was 4 (of 128 available processors)

Solution count 0

Model is infeasible or unbounded
Best objective -, best bound 1.036955743490e+04, gap -
